186719.11,46.72,57.93
176428.3,49.44,61.31
163891.2,53.22,66.0
158520.9,55.02,68.24
162002.17,53.84,66.77
167905.39,51.95,64.42
169857.84,51.35,63.68
172098.13,50.68,62.85
187557.99,46.51,57.67
156106.29,55.88,69.29
165560.84,52.69,65.33
158700.02,54.96,68.16
182775.82,47.72,59.18
179841.25,48.5,60.15
154116.44,56.6,70.19
165110.19,52.83,65.51
169674.18,51.41,63.75
156814.79,55.62,68.98
171541.79,50.85,63.06
168055.0,51.9,64.36
